outputs/case_417.model.txt
compliance_self_assessment_frequency_per_year = 0
subsidiary_control_policies_established = False
foreign_compliance_resources_adequate = False
compliance_self_assessment_records_retained = False
organization_regulations_established = False
foreign_compliance_risk_monitoring_established = False
foreign_financial_regulations_collected = False
risk_assessment_performed = False
compliance_self_assessment_results_reported = False
monitoring_activities_performed = False
risk_management_policy_defined = False
foreign_compliance_self_assessment_performed = False
compliance_evaluation_defined = False
control_environment_established = False
aml_ctf_program_established = True
foreign_compliance_supervisor_qualified = False
information_communication_effective = False
subsidiary_internal_control_supervised = False
compliance_communication_system_established = False
control_activities_implemented = False
compliance_audit_risk_units_participated = False
compliance_supervision_executed = False
internal_control_policies_reviewed = False
business_specifications_established = False
internal_control_policies_established = False
compliance_regulations_updated = False
compliance_training_provided = False
foreign_compliance_risk_monitoring_verified = False
risk_management_policy_approved_by_board = False
internal_control_system_executed = True
internal_control_system_established = True
internal_handling_system_executed = True
internal_operation_system_executed = True
internal_handling_system_established = True
internal_operation_system_established = True
internal_operation_executed = True
internal_handling_established = True
internal_operation_ok = True
internal_handling_ok = True
internal_control_participation_compliance_audit_risk = False
anti_money_laundering_program_established = True
internal_control_executed = True
business_specifications_defined = False
internal_control_established = True
internal_handling_executed = True
internal_operation_established = True
compliance_self_assessment_performed = False
risk_management_policy_established = False
internal_control_policies_defined = False
internal_control_comprehensive_ok = False
subsidiary_control_defined = False
organization_regulations_defined = False
control_activities_ok = False
control_environment_ok = False
risk_assessment_ok = False
penalty = False
compliance_opinion_signed = False
compliance_unit_established = False
internal_control_ok = True
compliance_foreign_unit_supervised = False
information_communication_ok = False
monitoring_activities_ok = False